\ENCODING=ISO-8859-1
\Problem name: JuliaExportProblem

Minimize
 obj1: _e(1)#7 + _e(2)#8 + _e(3)#9 + _e(4)#10 + _e(5)#11 + _e(6)#12 + _e(7)#13
       + 4 r(1)#28 + 4 r(2)#29 + 4 r(3)#30 + 4 r(4)#31 + 4 r(5)#32 + 4 r(6)#33
       + 4 r(7)#34 + 0.5 T(1,1)#35 + 0.5 T(2,1)#36 + 0.5 T(3,1)#37
       + 0.5 T(4,1)#38 + 0.5 T(5,1)#39 + 0.5 T(6,1)#40 + 0.5 T(7,1)#41
       + 0.5 T(1,2)#42 + 0.5 T(2,2)#43 + 0.5 T(3,2)#44 + 0.5 T(4,2)#45
       + 0.5 T(5,2)#46 + 0.5 T(6,2)#47 + 0.5 T(7,2)#48 + 0.5 T(1,3)#49
       + 0.5 T(2,3)#50 + 0.5 T(3,3)#51 + 0.5 T(4,3)#52 + 0.5 T(5,3)#53
       + 0.5 T(6,3)#54 + 0.5 T(7,3)#55 + 0.5 T(1,4)#56 + 0.5 T(2,4)#57
       + 0.5 T(3,4)#58 + 0.5 T(4,4)#59 + 0.5 T(5,4)#60 + 0.5 T(6,4)#61
       + 0.5 T(7,4)#62 + 0.5 T(1,5)#63 + 0.5 T(2,5)#64 + 0.5 T(3,5)#65
       + 0.5 T(4,5)#66 + 0.5 T(5,5)#67 + 0.5 T(6,5)#68 + 0.5 T(7,5)#69
       + 0.5 T(1,6)#70 + 0.5 T(2,6)#71 + 0.5 T(3,6)#72 + 0.5 T(4,6)#73
       + 0.5 T(5,6)#74 + 0.5 T(6,6)#75 + 0.5 T(7,6)#76 + 0.5 T(1,7)#77
       + 0.5 T(2,7)#78 + 0.5 T(3,7)#79 + 0.5 T(4,7)#80 + 0.5 T(5,7)#81
       + 0.5 T(6,7)#82 + 0.5 T(7,7)#83
Subject To
 con1(2)#0:  - s(2)#1 + _e(2)#8 + f(2)#15 + T(2,1)#36 + T(2,3)#50 + T(2,4)#57
             + T(2,5)#64 + T(2,6)#71 + T(2,7)#78  = 0
 con1(3)#1:  - s(3)#2 + _e(3)#9 + f(3)#16 + T(3,1)#37 + T(3,2)#44 + T(3,4)#58
             + T(3,5)#65 + T(3,6)#72 + T(3,7)#79  = 0
 con1(4)#2:  - s(4)#3 + _e(4)#10 + f(4)#17 + T(4,1)#38 + T(4,2)#45 + T(4,3)#52
             + T(4,5)#66 + T(4,6)#73 + T(4,7)#80  = 0
 con1(5)#3:  - s(5)#4 + _e(5)#11 + f(5)#18 + T(5,1)#39 + T(5,2)#46 + T(5,3)#53
             + T(5,4)#60 + T(5,6)#74 + T(5,7)#81  = 0
 con1(6)#4:  - s(6)#5 + _e(6)#12 + f(6)#19 + T(6,1)#40 + T(6,2)#47 + T(6,3)#54
             + T(6,4)#61 + T(6,5)#68 + T(6,7)#82  = 0
 con1(7)#5:  - s(7)#6 + _e(7)#13 + f(7)#20 + T(7,1)#41 + T(7,2)#48 + T(7,3)#55
             + T(7,4)#62 + T(7,5)#69 + T(7,6)#76  = 0
 con11#6:    - 0.9 s(1)#0 + _e(1)#7 + f(1)#14 + T(1,2)#42 + T(1,3)#49
             + T(1,4)#56 + T(1,5)#63 + T(1,6)#70 + T(1,7)#77  = 0
 con2(1)#7:  f(1)#14 + r(1)#28 + T(2,1)#36 + T(3,1)#37 + T(4,1)#38 + T(5,1)#39
             + T(6,1)#40 + T(7,1)#41  = 100
 con2(2)#8:  f(2)#15 + r(2)#29 + T(1,2)#42 + T(3,2)#44 + T(4,2)#45 + T(5,2)#46
             + T(6,2)#47 + T(7,2)#48  = 200
 con2(3)#9:  f(3)#16 + r(3)#30 + T(1,3)#49 + T(2,3)#50 + T(4,3)#52 + T(5,3)#53
             + T(6,3)#54 + T(7,3)#55  = 150
 con2(4)#10: f(4)#17 + r(4)#31 + T(1,4)#56 + T(2,4)#57 + T(3,4)#58 + T(5,4)#60
             + T(6,4)#61 + T(7,4)#62  = 170
 con2(5)#11: f(5)#18 + r(5)#32 + T(1,5)#63 + T(2,5)#64 + T(3,5)#65 + T(4,5)#66
             + T(6,5)#68 + T(7,5)#69  = 180
 con2(6)#12: f(6)#19 + r(6)#33 + T(1,6)#70 + T(2,6)#71 + T(3,6)#72 + T(4,6)#73
             + T(5,6)#74 + T(7,6)#76  = 170
 con2(7)#13: f(7)#20 + r(7)#34 + T(1,7)#77 + T(2,7)#78 + T(3,7)#79 + T(4,7)#80
             + T(5,7)#81 + T(6,7)#82  = 170
 con3#14:    q(1)#21 + q(2)#22 + q(3)#23 + q(4)#24 + q(5)#25 + q(6)#26
             + q(7)#27 + r(1)#28 + r(2)#29 + r(3)#30 + r(4)#31 + r(5)#32
             + r(6)#33 + r(7)#34  = 1140
 con4(1)#15: - s(1)#0 + _e(1)#7 + q(1)#21  = 0
 con4(2)#16: - s(2)#1 + _e(2)#8 + q(2)#22  = 0
 con4(3)#17: - s(3)#2 + _e(3)#9 + q(3)#23  = 0
 con4(4)#18: - s(4)#3 + _e(4)#10 + q(4)#24  = 0
 con4(5)#19: - s(5)#4 + _e(5)#11 + q(5)#25  = 0
 con4(6)#20: - s(6)#5 + _e(6)#12 + q(6)#26  = 0
 con4(7)#21: - s(7)#6 + _e(7)#13 + q(7)#27  = 0
 con5(1)#22: T(1,1)#35  = 0
 con5(2)#23: T(2,2)#43  = 0
 con5(3)#24: T(3,3)#51  = 0
 con5(4)#25: T(4,4)#59  = 0
 con5(5)#26: T(5,5)#67  = 0
 con5(6)#27: T(6,6)#75  = 0
 con5(7)#28: T(7,7)#83  = 0
End
